17	4
24	20	24	22	
0	0	0	0	0	3	2	3	4	
4	6	0	3	0	1	5	
3	5	8	5	9	3	7	16	17	
7	0	10	9	1	3	7	10	11	
3	0	9	0	0	3	6	8	13	
225	9	3	9	7	3	9	14	17	
175	7	0	9	8	2	17	17	
175	0	2	4	7	2	15	17	
200	8	0	1	8	3	16	17	17	
225	8	1	5	7	3	17	17	17	
175	6	2	10	1	3	12	17	17	
75	0	3	6	0	1	17	
6	7	1	0	3	1	15	
2	4	0	4	0	2	17	17	
6	9	6	6	6	2	17	17	
4	3	0	2	0	2	17	17	
0	0	0	0	0	0	
